set machine := 1 2 3 4 5 6 7;

param a := 
1	14
2	10
3	9
4	6
5	10
6	25
7	25;


param lb := 2;

param ub := 6;

param f :
	1	2	3	4	5	6	7:=
1	0	2.4	0	0	0	0	0
2	2.4	0	0	0	0	0	7
3	0	0	0	12	0	0	0
4	0	0	12	0	0	12	0
5	0	0	0	0	0	6	0
6	0	0	0	12	6	0	0
7	0	7	0	0	0	0	0;		

param lfx := 20;

param lfy := 5;

param M := 10000;



